NAME : mtspf.pid6848.gtsp
TYPE : ATSP
DIMENSION : 45
EDGE_WEIGHT_TYPE : EXPLICIT
EDGE_WEIGHT_FORMAT : FULL_MATRIX
EDGE_WEIGHT_SECTION
999999 5368709 5368709 5368709 5368709 5368772 5368771 5368772 5368773 5368770 5368769 5368770 5368771 5368752 5368751 5368752 5368753 5368764 5368763 5368764 5368765 5368754 5368755 5368756 5368755 5368748 5368747 5368748 5368749 5368732 5368731 5368730 5368731 5368759 5368758 5368757 5368758 5368762 5368761 5368760 5368761 5368751 5368750 5368751 5368752 
5368709 999999 5368709 5368709 5368709 5368750 5368751 5368750 5368749 5368744 5368743 5368742 5368743 5368726 5368725 5368726 5368727 5368748 5368747 5368746 5368747 5368728 5368729 5368730 5368729 5368730 5368729 5368728 5368729 5368744 5368745 5368744 5368743 5368747 5368746 5368745 5368746 5368742 5368741 5368740 5368741 5368723 5368724 5368725 5368724 
5368709 5368709 999999 5368709 5368709 5368750 5368751 5368750 5368749 5368740 5368739 5368738 5368739 5368736 5368735 5368736 5368737 5368752 5368751 5368750 5368751 5368736 5368737 5368738 5368737 5368738 5368739 5368738 5368739 5368754 5368755 5368754 5368753 5368753 5368754 5368753 5368752 5368746 5368745 5368744 5368745 5368719 5368720 5368719 5368718 
5368709 5368709 5368709 999999 5368709 5368728 5368729 5368728 5368727 5368722 5368721 5368722 5368723 5368722 5368723 5368724 5368723 5368730 5368729 5368728 5368729 5368722 5368723 5368724 5368723 5368724 5368725 5368726 5368725 5368744 5368745 5368744 5368743 5368733 5368732 5368731 5368732 5368724 5368725 5368724 5368723 5368735 5368736 5368735 5368734 
5368709 5368709 5368709 5368709 999999 5368767 5368766 5368767 5368768 5368765 5368764 5368765 5368766 5368747 5368746 5368747 5368748 5368759 5368758 5368759 5368760 5368749 5368750 5368751 5368750 5368743 5368742 5368743 5368744 5368727 5368726 5368725 5368726 5368754 5368753 5368752 5368753 5368757 5368756 5368755 5368756 5368746 5368745 5368746 5368747 
5368709 5368709 5368709 5368709 5368709 999999 0 10737418 10737418 5368724 5368723 5368724 5368725 5368734 5368735 5368736 5368735 5368718 5368719 5368720 5368719 5368734 5368735 5368736 5368735 5368736 5368737 5368738 5368737 5368754 5368755 5368754 5368753 5368725 5368726 5368725 5368724 5368722 5368723 5368722 5368721 5368751 5368752 5368751 5368750 
5368709 5368709 5368709 5368709 5368709 10737418 999999 0 10737418 5368725 5368724 5368725 5368726 5368735 5368736 5368737 5368736 5368717 5368718 5368719 5368718 5368735 5368736 5368737 5368736 5368735 5368736 5368737 5368736 5368753 5368754 5368753 5368752 5368724 5368725 5368724 5368723 5368721 5368722 5368721 5368720 5368752 5368753 5368752 5368751 
5368709 5368709 5368709 5368709 5368709 10737418 10737418 999999 0 5368726 5368725 5368726 5368727 5368734 5368735 5368736 5368735 5368716 5368717 5368718 5368717 5368736 5368737 5368738 5368737 5368734 5368735 5368736 5368735 5368752 5368753 5368752 5368751 5368723 5368724 5368723 5368722 5368720 5368721 5368720 5368719 5368753 5368754 5368753 5368752 
5368709 5368709 5368709 5368709 5368709 0 10737418 10737418 999999 5368725 5368724 5368725 5368726 5368735 5368736 5368737 5368736 5368717 5368718 5368719 5368718 5368735 5368736 5368737 5368736 5368735 5368736 5368737 5368736 5368753 5368754 5368753 5368752 5368724 5368725 5368724 5368723 5368721 5368722 5368721 5368720 5368752 5368753 5368752 5368751 
5368709 5368709 5368709 5368709 5368709 5368726 5368727 5368726 5368725 999999 0 10737418 10737418 5368732 5368733 5368734 5368733 5368728 5368727 5368726 5368727 5368732 5368733 5368734 5368733 5368734 5368735 5368736 5368735 5368752 5368753 5368752 5368751 5368729 5368730 5368729 5368728 5368720 5368721 5368720 5368719 5368741 5368742 5368741 5368740 
5368709 5368709 5368709 5368709 5368709 5368725 5368726 5368725 5368724 10737418 999999 0 10737418 5368731 5368732 5368733 5368732 5368727 5368726 5368725 5368726 5368731 5368732 5368733 5368732 5368733 5368734 5368735 5368734 5368751 5368752 5368751 5368750 5368728 5368729 5368728 5368727 5368719 5368720 5368719 5368718 5368742 5368743 5368742 5368741 
5368709 5368709 5368709 5368709 5368709 5368724 5368725 5368724 5368723 10737418 10737418 999999 0 5368730 5368731 5368732 5368731 5368726 5368725 5368724 5368725 5368730 5368731 5368732 5368731 5368732 5368733 5368734 5368733 5368750 5368751 5368750 5368749 5368727 5368728 5368727 5368726 5368718 5368719 5368718 5368717 5368741 5368742 5368741 5368740 
5368709 5368709 5368709 5368709 5368709 5368725 5368726 5368725 5368724 0 10737418 10737418 999999 5368731 5368732 5368733 5368732 5368727 5368726 5368725 5368726 5368731 5368732 5368733 5368732 5368733 5368734 5368735 5368734 5368751 5368752 5368751 5368750 5368728 5368729 5368728 5368727 5368719 5368720 5368719 5368718 5368740 5368741 5368740 5368739 
5368709 5368709 5368709 5368709 5368709 5368736 5368735 5368736 5368735 5368732 5368731 5368732 5368733 999999 0 10737418 10737418 5368732 5368731 5368730 5368731 5368712 5368713 5368714 5368713 5368718 5368717 5368716 5368717 5368736 5368737 5368736 5368735 5368733 5368734 5368733 5368732 5368726 5368725 5368724 5368725 5368735 5368736 5368737 5368736 
5368709 5368709 5368709 5368709 5368709 5368735 5368734 5368735 5368734 5368731 5368730 5368731 5368732 10737418 999999 0 10737418 5368731 5368730 5368729 5368730 5368713 5368714 5368715 5368714 5368717 5368716 5368715 5368716 5368735 5368736 5368735 5368734 5368732 5368733 5368732 5368731 5368725 5368724 5368723 5368724 5368734 5368735 5368736 5368735 
5368709 5368709 5368709 5368709 5368709 5368736 5368735 5368736 5368735 5368732 5368731 5368732 5368733 10737418 10737418 999999 0 5368732 5368731 5368730 5368731 5368714 5368715 5368716 5368715 5368716 5368715 5368714 5368715 5368734 5368735 5368734 5368733 5368733 5368734 5368733 5368732 5368726 5368725 5368724 5368725 5368733 5368734 5368735 5368734 
5368709 5368709 5368709 5368709 5368709 5368737 5368736 5368737 5368736 5368733 5368732 5368733 5368734 0 10737418 10737418 999999 5368733 5368732 5368731 5368732 5368713 5368714 5368715 5368714 5368717 5368716 5368715 5368716 5368735 5368736 5368735 5368734 5368734 5368735 5368734 5368733 5368727 5368726 5368725 5368726 5368734 5368735 5368736 5368735 
5368709 5368709 5368709 5368709 5368709 5368718 5368717 5368718 5368719 5368726 5368725 5368726 5368727 5368730 5368731 5368732 5368731 999999 0 10737418 10737418 5368734 5368735 5368736 5368735 5368730 5368731 5368732 5368731 5368746 5368747 5368746 5368745 5368717 5368718 5368717 5368716 5368716 5368717 5368718 5368717 5368753 5368754 5368753 5368752 
5368709 5368709 5368709 5368709 5368709 5368717 5368716 5368717 5368718 5368727 5368726 5368727 5368728 5368731 5368732 5368733 5368732 10737418 999999 0 10737418 5368735 5368736 5368737 5368736 5368731 5368732 5368733 5368732 5368745 5368746 5368745 5368744 5368716 5368717 5368718 5368717 5368717 5368718 5368719 5368718 5368754 5368755 5368754 5368753 
5368709 5368709 5368709 5368709 5368709 5368718 5368717 5368718 5368719 5368726 5368725 5368726 5368727 5368730 5368731 5368732 5368731 10737418 10737418 999999 0 5368734 5368735 5368736 5368735 5368730 5368731 5368732 5368731 5368744 5368745 5368744 5368743 5368715 5368716 5368717 5368716 5368716 5368717 5368718 5368717 5368753 5368754 5368753 5368752 
5368709 5368709 5368709 5368709 5368709 5368719 5368718 5368719 5368720 5368725 5368724 5368725 5368726 5368729 5368730 5368731 5368730 0 10737418 10737418 999999 5368733 5368734 5368735 5368734 5368729 5368730 5368731 5368730 5368745 5368746 5368745 5368744 5368716 5368717 5368716 5368715 5368715 5368716 5368717 5368716 5368752 5368753 5368752 5368751 
5368709 5368709 5368709 5368709 5368709 5368736 5368737 5368736 5368735 5368732 5368731 5368732 5368733 5368714 5368715 5368714 5368713 5368736 5368735 5368734 5368735 999999 0 10737418 10737418 5368720 5368719 5368718 5368719 5368738 5368739 5368738 5368737 5368737 5368736 5368735 5368736 5368730 5368729 5368728 5368729 5368737 5368738 5368739 5368738 
5368709 5368709 5368709 5368709 5368709 5368735 5368736 5368735 5368734 5368731 5368730 5368731 5368732 5368713 5368714 5368713 5368712 5368735 5368734 5368733 5368734 10737418 999999 0 10737418 5368719 5368718 5368717 5368718 5368737 5368738 5368737 5368736 5368736 5368735 5368734 5368735 5368729 5368728 5368727 5368728 5368736 5368737 5368738 5368737 
5368709 5368709 5368709 5368709 5368709 5368736 5368737 5368736 5368735 5368732 5368731 5368732 5368733 5368714 5368715 5368714 5368713 5368736 5368735 5368734 5368735 10737418 10737418 999999 0 5368720 5368719 5368718 5368719 5368738 5368739 5368738 5368737 5368737 5368736 5368735 5368736 5368730 5368729 5368728 5368729 5368737 5368738 5368739 5368738 
5368709 5368709 5368709 5368709 5368709 5368737 5368738 5368737 5368736 5368733 5368732 5368733 5368734 5368715 5368716 5368715 5368714 5368737 5368736 5368735 5368736 0 10737418 10737418 999999 5368721 5368720 5368719 5368720 5368739 5368740 5368739 5368738 5368738 5368737 5368736 5368737 5368731 5368730 5368729 5368730 5368738 5368739 5368740 5368739 
5368709 5368709 5368709 5368709 5368709 5368736 5368735 5368736 5368737 5368734 5368733 5368734 5368735 5368716 5368715 5368716 5368717 5368732 5368731 5368730 5368731 5368718 5368719 5368720 5368719 999999 0 10737418 10737418 5368730 5368731 5368730 5368729 5368731 5368730 5368729 5368730 5368726 5368725 5368724 5368725 5368737 5368738 5368739 5368738 
5368709 5368709 5368709 5368709 5368709 5368735 5368734 5368735 5368736 5368733 5368732 5368733 5368734 5368717 5368716 5368717 5368718 5368731 5368730 5368729 5368730 5368719 5368720 5368721 5368720 10737418 999999 0 10737418 5368729 5368730 5368729 5368728 5368730 5368729 5368728 5368729 5368725 5368724 5368723 5368724 5368738 5368739 5368740 5368739 
5368709 5368709 5368709 5368709 5368709 5368736 5368735 5368736 5368737 5368734 5368733 5368734 5368735 5368716 5368715 5368716 5368717 5368732 5368731 5368730 5368731 5368718 5368719 5368720 5368719 10737418 10737418 999999 0 5368728 5368729 5368728 5368727 5368731 5368730 5368729 5368730 5368726 5368725 5368724 5368725 5368737 5368738 5368739 5368738 
5368709 5368709 5368709 5368709 5368709 5368737 5368736 5368737 5368738 5368735 5368734 5368735 5368736 5368715 5368714 5368715 5368716 5368733 5368732 5368731 5368732 5368717 5368718 5368719 5368718 0 10737418 10737418 999999 5368729 5368730 5368729 5368728 5368732 5368731 5368730 5368731 5368727 5368726 5368725 5368726 5368736 5368737 5368738 5368737 
5368709 5368709 5368709 5368709 5368709 5368752 5368751 5368752 5368753 5368750 5368749 5368750 5368751 5368734 5368733 5368734 5368735 5368744 5368743 5368744 5368745 5368736 5368737 5368738 5368737 5368728 5368727 5368728 5368729 999999 0 10737418 10737418 5368739 5368738 5368737 5368738 5368742 5368741 5368740 5368741 5368751 5368752 5368753 5368752 
5368709 5368709 5368709 5368709 5368709 5368753 5368752 5368753 5368754 5368751 5368750 5368751 5368752 5368735 5368734 5368735 5368736 5368745 5368744 5368745 5368746 5368737 5368738 5368739 5368738 5368729 5368728 5368729 5368730 10737418 999999 0 10737418 5368740 5368739 5368738 5368739 5368743 5368742 5368741 5368742 5368752 5368753 5368754 5368753 
5368709 5368709 5368709 5368709 5368709 5368754 5368753 5368754 5368755 5368752 5368751 5368752 5368753 5368736 5368735 5368736 5368737 5368746 5368745 5368746 5368747 5368738 5368739 5368740 5368739 5368730 5368729 5368730 5368731 10737418 10737418 999999 0 5368741 5368740 5368739 5368740 5368744 5368743 5368742 5368743 5368753 5368752 5368753 5368754 
5368709 5368709 5368709 5368709 5368709 5368753 5368752 5368753 5368754 5368751 5368750 5368751 5368752 5368735 5368734 5368735 5368736 5368745 5368744 5368745 5368746 5368737 5368738 5368739 5368738 5368729 5368728 5368729 5368730 0 10737418 10737418 999999 5368740 5368739 5368738 5368739 5368743 5368742 5368741 5368742 5368752 5368751 5368752 5368753 
5368709 5368709 5368709 5368709 5368709 5368723 5368722 5368723 5368724 5368727 5368726 5368727 5368728 5368731 5368732 5368733 5368732 5368717 5368716 5368715 5368716 5368735 5368736 5368737 5368736 5368729 5368730 5368731 5368730 5368739 5368740 5368739 5368738 999999 0 10737418 10737418 5368717 5368718 5368719 5368718 5368754 5368755 5368754 5368753 
5368709 5368709 5368709 5368709 5368709 5368724 5368723 5368724 5368725 5368728 5368727 5368728 5368729 5368732 5368733 5368734 5368733 5368716 5368715 5368716 5368717 5368736 5368737 5368738 5368737 5368730 5368731 5368732 5368731 5368740 5368741 5368740 5368739 10737418 999999 0 10737418 5368718 5368719 5368720 5368719 5368755 5368756 5368755 5368754 
5368709 5368709 5368709 5368709 5368709 5368725 5368724 5368725 5368726 5368729 5368728 5368729 5368730 5368733 5368734 5368735 5368734 5368717 5368716 5368717 5368718 5368735 5368736 5368737 5368736 5368729 5368730 5368731 5368730 5368739 5368740 5368739 5368738 10737418 10737418 999999 0 5368719 5368720 5368721 5368720 5368754 5368755 5368756 5368755 
5368709 5368709 5368709 5368709 5368709 5368724 5368723 5368724 5368725 5368728 5368727 5368728 5368729 5368732 5368733 5368734 5368733 5368718 5368717 5368716 5368717 5368734 5368735 5368736 5368735 5368728 5368729 5368730 5368729 5368738 5368739 5368738 5368737 0 10737418 10737418 999999 5368718 5368719 5368720 5368719 5368753 5368754 5368755 5368754 
5368709 5368709 5368709 5368709 5368709 5368720 5368719 5368720 5368721 5368718 5368717 5368718 5368719 5368724 5368725 5368726 5368725 5368718 5368717 5368716 5368717 5368728 5368729 5368730 5368729 5368724 5368725 5368726 5368725 5368742 5368743 5368742 5368741 5368719 5368720 5368719 5368718 999999 0 10737418 10737418 5368747 5368748 5368747 5368746 
5368709 5368709 5368709 5368709 5368709 5368721 5368720 5368721 5368722 5368719 5368718 5368719 5368720 5368725 5368726 5368727 5368726 5368717 5368716 5368715 5368716 5368729 5368730 5368731 5368730 5368725 5368726 5368727 5368726 5368743 5368744 5368743 5368742 5368718 5368719 5368718 5368717 10737418 999999 0 10737418 5368748 5368749 5368748 5368747 
5368709 5368709 5368709 5368709 5368709 5368722 5368721 5368722 5368723 5368720 5368719 5368720 5368721 5368724 5368725 5368726 5368725 5368718 5368717 5368716 5368717 5368728 5368729 5368730 5368729 5368724 5368725 5368726 5368725 5368742 5368743 5368742 5368741 5368719 5368720 5368719 5368718 10737418 10737418 999999 0 5368747 5368748 5368747 5368746 
5368709 5368709 5368709 5368709 5368709 5368721 5368720 5368721 5368722 5368719 5368718 5368719 5368720 5368723 5368724 5368725 5368724 5368719 5368718 5368717 5368718 5368727 5368728 5368729 5368728 5368723 5368724 5368725 5368724 5368741 5368742 5368741 5368740 5368720 5368721 5368720 5368719 0 10737418 10737418 999999 5368746 5368747 5368746 5368745 
5368709 5368709 5368709 5368709 5368709 5368751 5368752 5368751 5368750 5368741 5368740 5368739 5368740 5368735 5368734 5368735 5368736 5368753 5368752 5368751 5368752 5368737 5368738 5368739 5368738 5368739 5368738 5368737 5368738 5368753 5368754 5368753 5368752 5368754 5368755 5368754 5368753 5368747 5368746 5368745 5368746 999999 0 10737418 10737418 
5368709 5368709 5368709 5368709 5368709 5368752 5368753 5368752 5368751 5368742 5368741 5368740 5368741 5368734 5368733 5368734 5368735 5368754 5368753 5368752 5368753 5368736 5368737 5368738 5368737 5368738 5368737 5368736 5368737 5368752 5368753 5368752 5368751 5368755 5368754 5368753 5368754 5368748 5368747 5368746 5368747 10737418 999999 0 10737418 
5368709 5368709 5368709 5368709 5368709 5368753 5368754 5368753 5368752 5368743 5368742 5368741 5368742 5368735 5368734 5368735 5368736 5368755 5368754 5368753 5368754 5368737 5368738 5368739 5368738 5368739 5368738 5368737 5368738 5368753 5368752 5368751 5368752 5368756 5368755 5368754 5368755 5368749 5368748 5368747 5368748 10737418 10737418 999999 0 
5368709 5368709 5368709 5368709 5368709 5368752 5368753 5368752 5368751 5368742 5368741 5368740 5368741 5368736 5368735 5368736 5368737 5368754 5368753 5368752 5368753 5368738 5368739 5368740 5368739 5368740 5368739 5368738 5368739 5368754 5368753 5368752 5368753 5368755 5368756 5368755 5368754 5368748 5368747 5368746 5368747 0 10737418 10737418 999999 
EOF
